id: 1238
name: ns2017839
group: miplib2010
method: 2

Gurobi 7.0.2 (linux64, Matlab) logging started Mon Mar 26 10:17:09 2018


Gurobi 7.0.2 (linux64) logging started Mon Mar 26 10:17:09 2018

Optimize a model with 54510 rows, 55224 columns and 317840 nonzeros
Coefficient statistics:
  Matrix range     [3e-01, 4e+07]
  Objective range  [1e+02, 8e+08]
  Bounds range     [1e+00, 1e+00]
  RHS range        [8e+00, 8e+07]
Presolve removed 4755 rows and 3455 columns
Presolve time: 0.09s
Presolved: 49755 rows, 53235 columns, 299643 nonzeros

Ordering time: 0.06s

Barrier statistics:
 Dense cols : 6
 AA' NZ     : 3.569e+05
 Factor NZ  : 1.547e+06 (roughly 50 MBytes of memory)
 Factor Ops : 1.795e+08 (less than 1 second per iteration)
 Threads    : 4

                  Objective                Residual
Iter       Primal          Dual         Primal    Dual     Compl     Time
   0   2.44634884e+15 -5.88662034e+15  1.30e+08 1.27e+05  1.55e+14     0s
   1   2.22456723e+15 -2.79197783e+16  6.71e+07 8.41e+07  8.01e+13     0s
   2   1.20274414e+15 -3.35802386e+16  1.81e+07 4.80e+07  2.46e+13     0s
   3   1.06475467e+15 -4.67944363e+16  5.89e+06 1.28e+07  8.46e+12     0s
   4   9.48802237e+14 -3.72215754e+16  2.34e+06 3.35e+06  3.27e+12     0s
   5   8.90253951e+14 -3.06737429e+16  1.57e+06 1.86e+06  2.16e+12     0s
   6   7.95624658e+14 -2.17806922e+16  9.01e+05 8.28e+05  1.22e+12     0s
   7   5.77683728e+14 -1.47271327e+16  2.53e+05 3.87e+05  4.26e+11     1s
   8   3.19577961e+14 -5.67525656e+15  2.89e+04 6.50e+04  9.03e+10     1s
   9   2.04711421e+14 -1.06398082e+15  7.73e+03 1.04e+04  1.98e+10     1s
  10   1.84129180e+14 -2.88182904e+14  4.74e+03 3.02e+03  9.00e+09     1s
  11   1.76718023e+14 -2.75534641e+14  3.95e+03 2.89e+03  8.25e+09     1s
  12   1.40147850e+14 -1.03801514e+14  7.86e+02 1.43e+03  3.88e+09     1s
  13   1.29051209e+14 -5.56769615e+13  3.90e+02 7.90e+02  2.86e+09     1s
  14   1.16048202e+14 -3.37489291e+13  2.67e+02 5.92e+02  2.20e+09     1s
  15   1.03874624e+14  3.11794800e+13  1.64e+02 1.53e+02  1.13e+09     1s
  16   8.64844471e+13  5.45256139e+13  4.21e+01 4.62e+01  4.19e+08     1s
  17   8.24846806e+13  6.29486710e+13  2.54e+01 1.43e-06  2.45e+08     1s
  18   8.01041860e+13  6.92719278e+13  1.45e+01 1.19e-06  1.30e+08     1s
  19   7.89050906e+13  7.20648263e+13  9.10e+00 4.77e-07  7.89e+07     1s
  20   7.82236190e+13  7.38110895e+13  5.80e+00 4.77e-07  4.94e+07     1s
  21   7.78491805e+13  7.55399914e+13  3.82e+00 7.15e-07  2.53e+07     1s
  22   7.74873944e+13  7.62375488e+13  2.04e+00 1.91e-06  1.34e+07     1s
  23   7.72871135e+13  7.66116335e+13  1.06e+00 3.58e-07  7.15e+06     1s
  24   7.71950900e+13  7.67964611e+13  6.32e-01 5.72e-06  4.20e+06     1s
  25   7.71548992e+13  7.68620366e+13  4.63e-01 1.91e-06  3.08e+06     1s
  26   7.71046932e+13  7.69142295e+13  2.69e-01 3.81e-06  2.00e+06     1s
  27   7.70795216e+13  7.69611520e+13  1.73e-01 3.81e-06  1.24e+06     1s
  28   7.70630319e+13  7.69732425e+13  1.17e-01 1.19e-07  9.38e+05     1s
  29   7.70500415e+13  7.69905994e+13  7.09e-02 4.77e-07  6.21e+05     1s
  30   7.70374650e+13  7.70064214e+13  2.98e-02 1.43e-06  3.24e+05     1s
  31   7.70355653e+13  7.70140030e+13  2.43e-02 3.58e-07  2.25e+05     1s
  32   7.70342743e+13  7.70149537e+13  2.08e-02 4.77e-07  2.02e+05     1s
  33   7.70329414e+13  7.70210165e+13  1.74e-02 2.38e-07  1.24e+05     2s
  34   7.70306625e+13  7.70219711e+13  1.16e-02 5.96e-07  9.07e+04     2s
  35   7.70285614e+13  7.70234536e+13  6.43e-03 3.58e-07  5.33e+04     2s
  36   7.70273574e+13  7.70246866e+13  3.65e-03 2.98e-08  2.79e+04     2s
  37   7.70269875e+13  7.70249788e+13  2.84e-03 2.38e-07  2.09e+04     2s
  38   7.70264273e+13  7.70252430e+13  1.64e-03 1.19e-07  1.23e+04     2s
  39   7.70263696e+13  7.70252984e+13  1.50e-03 1.19e-07  1.12e+04     2s
  40   7.70261695e+13  7.70254724e+13  1.08e-03 5.40e-11  7.27e+03     2s
  41   7.70260481e+13  7.70254943e+13  8.43e-04 5.96e-08  5.77e+03     2s
  42   7.70259631e+13  7.70255119e+13  9.06e-04 5.96e-08  4.71e+03     2s
  43   7.70258836e+13  7.70255669e+13  1.01e-03 1.19e-07  3.30e+03     2s
  44   7.70258042e+13  7.70255864e+13  2.15e-02 4.85e-11  2.27e+03     2s
  45   7.70257888e+13  7.70256027e+13  1.95e-02 1.19e-07  1.94e+03     2s
  46   7.70257152e+13  7.70256140e+13  9.86e-03 2.38e-07  1.05e+03     2s
  47   7.70257125e+13  7.70256188e+13  9.54e-03 1.19e-07  9.76e+02     2s
  48   7.70256909e+13  7.70256249e+13  2.98e-03 2.98e-08  6.89e+02     2s
  49   7.70256838e+13  7.70256269e+13  2.53e-03 2.98e-08  5.93e+02     2s
  50   7.70256608e+13  7.70256305e+13  1.43e-02 1.19e-07  3.16e+02     2s
  51   7.70256608e+13  7.70256305e+13  5.81e-02 2.38e-07  3.16e+02     2s
  52   7.70256609e+13  7.70256305e+13  1.35e-01 1.19e-07  3.16e+02     2s
  53   7.70256591e+13  7.70256310e+13  1.24e-01 1.19e-07  2.92e+02     2s
  54   7.70256455e+13  7.70256364e+13  3.56e-02 9.04e-06  9.44e+01     2s
  55   7.70256455e+13  7.70256365e+13  3.53e-02 1.00e-05  9.33e+01     3s
  56   7.70256439e+13  7.70256372e+13  2.61e-02 7.77e-06  7.04e+01     3s
  57   7.70256428e+13  7.70256381e+13  1.95e-02 4.75e-06  4.96e+01     3s
  58   7.70256406e+13  7.70256393e+13  6.49e-03 5.68e-07  1.38e+01     3s
  59   7.70256412e+13  7.70256393e+13  2.52e-01 8.70e-07  1.38e+01     3s
  60   7.70256411e+13  7.70256393e+13  2.52e-01 1.55e-06  1.37e+01     3s
  61   7.70256401e+13  7.70256393e+13  8.84e-01 1.19e-07  1.32e+01     3s
  62   7.70256399e+13  7.70256393e+13  8.84e-01 1.15e-06  1.32e+01     3s
  63   7.70256399e+13  7.70256393e+13  8.84e-01 1.59e-06  1.32e+01     3s
  64   7.70256399e+13  7.70256393e+13  8.84e-01 2.38e-07  1.32e+01     3s
  65   7.70256399e+13  7.70256393e+13  8.79e-01 4.73e-07  1.32e+01     3s
  66   7.70256399e+13  7.70256393e+13  8.79e-01 4.21e-07  1.32e+01     3s
  67   7.70256400e+13  7.70256393e+13  8.79e-01 4.54e-07  1.32e+01     3s
  68   7.70256400e+13  7.70256393e+13  8.79e-01 2.10e-06  1.32e+01     3s

Barrier performed 68 iterations in 3.29 seconds
Sub-optimal termination - objective 7.70256406e+13

Crossover log...

   17746 DPushes remaining with DInf 0.0000000e+00                 5s
       0 DPushes remaining with DInf 1.5034625e-06                 6s

   43243 PPushes remaining with PInf 4.4797951e+00                 6s
       3 PPushes remaining with PInf 0.0000000e+00                 7s

  Push phase complete: Pinf 0.0000000e+00, Dinf 1.0931249e+08      7s

Iteration    Objective       Primal Inf.    Dual Inf.      Time
   86668    7.7025640e+13   0.000000e+00   1.093125e+08      7s
Extra 2 simplex iterations after uncrush
   87754    7.7025640e+13   0.000000e+00   0.000000e+00      7s

Solved in 87754 iterations and 7.39 seconds
Optimal objective  7.702563957e+13
status: OPTIMAL
